100
150
99
99
97
97
96
96
94
92
92
92
92
91
90
90
89
89
88
85
84
84
84
80
80
78
78
77
77
77
76
75
75
75
74
73
73
72
71
71
70
68
66
65
64
62
61
60
57
56
56
55
55
54
54
52
50
50
48
48
47
47
45
45
45
44
42
40
40
39
38
38
38
36
34
32
30
29
29
29
28
28
28
26
25
25
24
21
18
17
14
13
12
12
10
10
9
9
8
5
4
1
